p tw 176 39601 2 
1 89 
1 92 
1 93 
1 96 
1 98 
1 99 
1 101 
1 104 
1 106 
1 108 
1 110 
1 112 
1 114 
1 115 
1 117 
1 119 
1 122 
1 124 
1 126 
1 127 
1 130 
1 132 
1 134 
1 135 
1 137 
1 139 
1 141 
1 144 
1 146 
1 148 
1 149 
1 152 
1 154 
1 156 
1 157 
1 159 
1 161 
1 163 
1 165 
1 167 
1 169 
1 172 
1 174 
1 175 
2 90 
2 91 
2 94 
2 95 
2 97 
2 100 
2 102 
2 103 
2 105 
2 107 
2 109 
2 111 
2 113 
2 116 
2 118 
2 120 
2 121 
2 123 
2 125 
2 128 
2 129 
2 131 
2 133 
2 136 
2 138 
2 140 
2 142 
2 143 
2 145 
2 147 
2 150 
2 151 
2 153 
2 155 
2 158 
2 160 
2 162 
2 164 
2 166 
2 168 
2 170 
2 171 
2 173 
2 176 
3 4 
3 89 
3 91 
3 93 
3 95 
3 98 
3 100 
3 102 
3 103 
3 105 
3 108 
3 109 
3 111 
3 114 
3 115 
3 117 
3 119 
3 121 
3 123 
3 126 
3 128 
3 130 
3 132 
3 133 
3 136 
3 137 
3 140 
3 141 
3 144 
3 145 
3 148 
3 149 
3 151 
3 154 
3 156 
3 158 
3 160 
3 162 
3 164 
3 166 
3 167 
3 169 
3 172 
3 174 
3 176 
4 90 
4 92 
4 94 
4 96 
4 97 
4 99 
4 101 
4 104 
4 106 
4 107 
4 110 
4 112 
4 113 
4 116 
4 118 
4 120 
4 122 
4 124 
4 125 
4 127 
4 129 
4 131 
4 134 
4 135 
4 138 
4 139 
4 142 
4 143 
4 146 
4 147 
4 150 
4 152 
4 153 
4 155 
4 157 
4 159 
4 161 
4 163 
4 165 
4 168 
4 170 
4 171 
4 173 
4 175 
5 6 
5 89 
5 91 
5 93 
5 95 
5 97 
5 99 
5 101 
5 104 
5 105 
5 108 
5 109 
5 112 
5 113 
5 116 
5 117 
5 120 
5 122 
5 123 
5 126 
5 128 
5 130 
5 132 
5 133 
5 135 
5 137 
5 139 
5 142 
5 143 
5 146 
5 148 
5 150 
5 152 
5 153 
5 156 
5 158 
5 160 
5 161 
5 164 
5 166 
5 168 
5 170 
5 172 
5 173 
5 175 
6 90 
6 92 
6 94 
6 96 
6 98 
6 100 
6 102 
6 103 
6 106 
6 107 
6 110 
6 111 
6 114 
6 115 
6 118 
6 119 
6 121 
6 124 
6 125 
6 127 
6 129 
6 131 
6 134 
6 136 
6 138 
6 140 
6 141 
6 144 
6 145 
6 147 
6 149 
6 151 
6 154 
6 155 
6 157 
6 159 
6 162 
6 163 
6 165 
6 167 
6 169 
6 171 
6 174 
6 176 
7 8 
7 90 
7 92 
7 93 
7 95 
7 98 
7 100 
7 101 
7 104 
7 106 
7 108 
7 109 
7 111 
7 113 
7 116 
7 117 
7 120 
7 122 
7 123 
7 125 
7 128 
7 129 
7 131 
7 133 
7 136 
7 138 
7 140 
7 141 
7 144 
7 146 
7 147 
7 149 
7 152 
7 154 
7 155 
7 158 
7 159 
7 161 
7 163 
7 166 
7 167 
7 170 
7 172 
7 174 
7 175 
8 89 
8 91 
8 94 
8 96 
8 97 
8 99 
8 102 
8 103 
8 105 
8 107 
8 110 
8 112 
8 114 
8 115 
8 118 
8 119 
8 121 
8 124 
8 126 
8 127 
8 130 
8 132 
8 134 
8 135 
8 137 
8 139 
8 142 
8 143 
8 145 
8 148 
8 150 
8 151 
8 153 
8 156 
8 157 
8 160 
8 162 
8 164 
8 165 
8 168 
8 169 
8 171 
8 173 
8 176 
9 10 
9 89 
9 92 
9 94 
9 95 
9 97 
9 100 
9 102 
9 103 
9 106 
9 108 
9 110 
9 111 
9 114 
9 116 
9 117 
9 120 
9 122 
9 123 
9 125 
9 127 
9 130 
9 131 
9 134 
9 135 
9 137 
9 140 
9 142 
9 143 
9 145 
9 147 
9 149 
9 152 
9 153 
9 156 
9 158 
9 159 
9 162 
9 164 
9 165 
9 168 
9 169 
9 172 
9 174 
9 175 
10 90 
10 91 
10 93 
10 96 
10 98 
10 99 
10 101 
10 104 
10 105 
10 107 
10 109 
10 112 
10 113 
10 115 
10 118 
10 119 
10 121 
10 124 
10 126 
10 128 
10 129 
10 132 
10 133 
10 136 
10 138 
10 139 
10 141 
10 144 
10 146 
10 148 
10 150 
10 151 
10 154 
10 155 
10 157 
10 160 
10 161 
10 163 
10 166 
10 167 
10 170 
10 171 
10 173 
10 176 
11 12 
11 90 
11 91 
11 93 
11 96 
11 97 
11 100 
11 102 
11 104 
11 105 
11 107 
11 109 
11 111 
11 113 
11 116 
11 118 
11 119 
11 121 
11 124 
11 126 
11 127 
11 130 
11 132 
11 134 
11 136 
11 137 
11 140 
11 141 
11 143 
11 146 
11 147 
11 150 
11 152 
11 154 
11 155 
11 158 
11 159 
11 161 
11 164 
11 165 
11 168 
11 169 
11 172 
11 174 
11 175 
12 89 
12 92 
12 94 
12 95 
12 98 
12 99 
12 101 
12 103 
12 106 
12 108 
12 110 
12 112 
12 114 
12 115 
12 117 
12 120 
12 122 
12 123 
12 125 
12 128 
12 129 
12 131 
12 133 
12 135 
12 138 
12 139 
12 142 
12 144 
12 145 
12 148 
12 149 
12 151 
12 153 
12 156 
12 157 
12 160 
12 162 
12 163 
12 166 
12 167 
12 170 
12 171 
12 173 
12 176 
13 14 
13 90 
13 92 
13 93 
13 95 
13 97 
13 99 
13 102 
13 103 
13 105 
13 108 
13 109 
13 111 
13 113 
13 115 
13 118 
13 119 
13 121 
13 124 
13 125 
13 128 
13 130 
13 131 
13 133 
13 135 
13 138 
13 139 
13 141 
13 143 
13 145 
13 147 
13 149 
13 152 
13 153 
13 156 
13 157 
13 160 
13 161 
13 163 
13 165 
13 167 
13 169 
13 172 
13 173 
13 175 
14 89 
14 91 
14 94 
14 96 
14 98 
14 100 
14 101 
14 104 
14 106 
14 107 
14 110 
14 112 
14 114 
14 116 
14 117 
14 120 
14 122 
14 123 
14 126 
14 127 
14 129 
14 132 
14 134 
14 136 
14 137 
14 140 
14 142 
14 144 
14 146 
14 148 
14 150 
14 151 
14 154 
14 155 
14 158 
14 159 
14 162 
14 164 
14 166 
14 168 
14 170 
14 171 
14 174 
14 176 
15 16 
15 90 
15 92 
15 93 
15 96 
15 98 
15 99 
15 101 
15 103 
15 106 
15 108 
15 109 
15 112 
15 114 
15 115 
15 118 
15 120 
15 121 
15 123 
15 126 
15 127 
15 129 
15 131 
15 133 
15 135 
15 137 
15 140 
15 142 
15 144 
15 145 
15 147 
15 150 
15 152 
15 154 
15 155 
15 158 
15 160 
15 161 
15 164 
15 165 
15 168 
15 169 
15 172 
15 173 
15 176 
16 89 
16 91 
16 94 
16 95 
16 97 
16 100 
16 102 
16 104 
16 105 
16 107 
16 110 
16 111 
16 113 
16 116 
16 117 
16 119 
16 122 
16 124 
16 125 
16 128 
16 130 
16 132 
16 134 
16 136 
16 138 
16 139 
16 141 
16 143 
16 146 
16 148 
16 149 
16 151 
16 153 
16 156 
16 157 
16 159 
16 162 
16 163 
16 166 
16 167 
16 170 
16 171 
16 174 
16 175 
17 18 
17 89 
17 91 
17 93 
17 96 
17 97 
17 99 
17 101 
17 103 
17 106 
17 108 
17 110 
17 111 
17 113 
17 115 
17 117 
17 120 
17 121 
17 124 
17 125 
17 128 
17 129 
17 132 
17 134 
17 136 
17 138 
17 140 
17 141 
17 144 
17 146 
17 147 
17 150 
17 152 
17 153 
17 156 
17 157 
17 159 
17 162 
17 164 
17 166 
17 168 
17 169 
17 172 
17 173 
17 176 
18 90 
18 92 
18 94 
18 95 
18 98 
18 100 
18 102 
18 104 
18 105 
18 107 
18 109 
18 112 
18 114 
18 116 
18 118 
18 119 
18 122 
18 123 
18 126 
18 127 
18 130 
18 131 
18 133 
18 135 
18 137 
18 139 
18 142 
18 143 
18 145 
18 148 
18 149 
18 151 
18 154 
18 155 
18 158 
18 160 
18 161 
18 163 
18 165 
18 167 
18 170 
18 171 
18 174 
18 175 
19 20 
19 90 
19 91 
19 93 
19 96 
19 98 
19 100 
19 101 
19 103 
19 105 
19 108 
19 110 
19 111 
19 113 
19 115 
19 118 
19 119 
19 122 
19 123 
19 125 
19 128 
19 129 
19 131 
19 134 
19 135 
19 137 
19 140 
19 142 
19 143 
19 146 
19 148 
19 150 
19 152 
19 154 
19 156 
19 157 
19 160 
19 162 
19 164 
19 165 
19 167 
19 170 
19 171 
19 174 
19 175 
20 89 
20 92 
20 94 
20 95 
20 97 
20 99 
20 102 
20 104 
20 106 
20 107 
20 109 
20 112 
20 114 
20 116 
20 117 
20 120 
20 121 
20 124 
20 126 
20 127 
20 130 
20 132 
20 133 
20 136 
20 138 
20 139 
20 141 
20 144 
20 145 
20 147 
20 149 
20 151 
20 153 
20 155 
20 158 
20 159 
20 161 
20 163 
20 166 
20 168 
20 169 
20 172 
20 173 
20 176 
21 22 
21 89 
21 92 
21 93 
21 95 
21 98 
21 99 
21 102 
21 104 
21 106 
21 107 
21 109 
21 111 
21 114 
21 116 
21 118 
21 119 
21 121 
21 123 
21 125 
21 128 
21 129 
21 132 
21 134 
21 135 
21 138 
21 139 
21 141 
21 144 
21 145 
21 148 
21 150 
21 152 
21 154 
21 156 
21 158 
21 159 
21 162 
21 164 
21 165 
21 168 
21 170 
21 171 
21 173 
21 175 
22 90 
22 91 
22 94 
22 96 
22 97 
22 100 
22 101 
22 103 
22 105 
22 108 
22 110 
22 112 
22 113 
22 115 
22 117 
22 120 
22 122 
22 124 
22 126 
22 127 
22 130 
22 131 
22 133 
22 136 
22 137 
22 140 
22 142 
22 143 
22 146 
22 147 
22 149 
22 151 
22 153 
22 155 
22 157 
22 160 
22 161 
22 163 
22 166 
22 167 
22 169 
22 172 
22 174 
22 176 
23 24 
23 89 
23 91 
23 94 
23 96 
23 97 
23 99 
23 102 
23 103 
23 106 
23 108 
23 109 
23 111 
23 113 
23 115 
23 118 
23 120 
23 122 
23 123 
23 126 
23 127 
23 130 
23 131 
23 134 
23 136 
23 138 
23 139 
23 141 
23 144 
23 145 
23 148 
23 149 
23 152 
23 154 
23 155 
23 157 
23 160 
23 161 
23 164 
23 166 
23 168 
23 170 
23 171 
23 174 
23 175 
24 90 
24 92 
24 93 
24 95 
24 98 
24 100 
24 101 
24 104 
24 105 
24 107 
24 110 
24 112 
24 114 
24 116 
24 117 
24 119 
24 121 
24 124 
24 125 
24 128 
24 129 
24 132 
24 133 
24 135 
24 137 
24 140 
24 142 
24 143 
24 146 
24 147 
24 150 
24 151 
24 153 
24 156 
24 158 
24 159 
24 162 
24 163 
24 165 
24 167 
24 169 
24 172 
24 173 
24 176 
25 26 
25 90 
25 91 
25 93 
25 95 
25 98 
25 99 
25 102 
25 104 
25 106 
25 107 
25 110 
25 111 
25 113 
25 116 
25 118 
25 120 
25 122 
25 124 
25 126 
25 127 
25 129 
25 131 
25 133 
25 136 
25 137 
25 139 
25 142 
25 143 
25 145 
25 148 
25 149 
25 152 
25 154 
25 156 
25 157 
25 159 
25 162 
25 164 
25 166 
25 167 
25 169 
25 172 
25 173 
25 176 
26 89 
26 92 
26 94 
26 96 
26 97 
26 100 
26 101 
26 103 
26 105 
26 108 
26 109 
26 112 
26 114 
26 115 
26 117 
26 119 
26 121 
26 123 
26 125 
26 128 
26 130 
26 132 
26 134 
26 135 
26 138 
26 140 
26 141 
26 144 
26 146 
26 147 
26 150 
26 151 
26 153 
26 155 
26 158 
26 160 
26 161 
26 163 
26 165 
26 168 
26 170 
26 171 
26 174 
26 175 
27 28 
27 90 
27 92 
27 93 
27 95 
27 97 
27 100 
27 101 
27 104 
27 105 
27 108 
27 110 
27 111 
27 113 
27 115 
27 118 
27 120 
27 121 
27 123 
27 126 
27 127 
27 130 
27 132 
27 134 
27 135 
27 138 
27 139 
27 142 
27 144 
27 145 
27 148 
27 150 
27 152 
27 153 
27 155 
27 158 
27 159 
27 162 
27 163 
27 166 
27 167 
27 169 
27 171 
27 174 
27 176 
28 89 
28 91 
28 94 
28 96 
28 98 
28 99 
28 102 
28 103 
28 106 
28 107 
28 109 
28 112 
28 114 
28 116 
28 117 
28 119 
28 122 
28 124 
28 125 
28 128 
28 129 
28 131 
28 133 
28 136 
28 137 
28 140 
28 141 
28 143 
28 146 
28 147 
28 149 
28 151 
28 154 
28 156 
28 157 
28 160 
28 161 
28 164 
28 165 
28 168 
28 170 
28 172 
28 173 
28 175 
29 30 
29 90 
29 92 
29 94 
29 96 
29 97 
29 100 
29 102 
29 104 
29 106 
29 108 
29 110 
29 111 
29 114 
29 115 
29 118 
29 120 
29 122 
29 124 
29 126 
29 128 
29 130 
29 132 
29 133 
29 136 
29 138 
29 139 
29 142 
29 144 
29 146 
29 147 
29 150 
29 151 
29 154 
29 156 
29 158 
29 160 
29 162 
29 164 
29 165 
29 167 
29 170 
29 172 
29 173 
29 175 
30 89 
30 91 
30 93 
30 95 
30 98 
30 99 
30 101 
30 103 
30 105 
30 107 
30 109 
30 112 
30 113 
30 116 
30 117 
30 119 
30 121 
30 123 
30 125 
30 127 
30 129 
30 131 
30 134 
30 135 
30 137 
30 140 
30 141 
30 143 
30 145 
30 148 
30 149 
30 152 
30 153 
30 155 
30 157 
30 159 
30 161 
30 163 
30 166 
30 168 
30 169 
30 171 
30 174 
30 176 
31 32 
31 89 
31 92 
31 93 
31 96 
31 98 
31 100 
31 102 
31 103 
31 105 
31 107 
31 110 
31 111 
31 113 
31 116 
31 117 
31 119 
31 122 
31 123 
31 126 
31 127 
31 129 
31 132 
31 133 
31 136 
31 138 
31 139 
31 142 
31 144 
31 145 
31 147 
31 150 
31 152 
31 153 
31 156 
31 157 
31 160 
31 161 
31 163 
31 165 
31 168 
31 170 
31 172 
31 174 
31 176 
32 90 
32 91 
32 94 
32 95 
32 97 
32 99 
32 101 
32 104 
32 106 
32 108 
32 109 
32 112 
32 114 
32 115 
32 118 
32 120 
32 121 
32 124 
32 125 
32 128 
32 130 
32 131 
32 134 
32 135 
32 137 
32 140 
32 141 
32 143 
32 146 
32 148 
32 149 
32 151 
32 154 
32 155 
32 158 
32 159 
32 162 
32 164 
32 166 
32 167 
32 169 
32 171 
32 173 
32 175 
33 34 
33 89 
33 91 
33 93 
33 95 
33 97 
33 100 
33 102 
33 103 
33 106 
33 107 
33 110 
33 112 
33 114 
33 115 
33 118 
33 120 
33 122 
33 124 
33 125 
33 128 
33 129 
33 132 
33 134 
33 135 
33 137 
33 139 
33 141 
33 143 
33 145 
33 147 
33 150 
33 152 
33 154 
33 155 
33 158 
33 160 
33 161 
33 163 
33 166 
33 167 
33 170 
33 172 
33 174 
33 176 
34 90 
34 92 
34 94 
34 96 
34 98 
34 99 
34 101 
34 104 
34 105 
34 108 
34 109 
34 111 
34 113 
34 116 
34 117 
34 119 
34 121 
34 123 
34 126 
34 127 
34 130 
34 131 
34 133 
34 136 
34 138 
34 140 
34 142 
34 144 
34 146 
34 148 
34 149 
34 151 
34 153 
34 156 
34 157 
34 159 
34 162 
34 164 
34 165 
34 168 
34 169 
34 171 
34 173 
34 175 
35 36 
35 89 
35 91 
35 94 
35 96 
35 98 
35 99 
35 102 
35 103 
35 105 
35 108 
35 110 
35 112 
35 114 
35 116 
35 118 
35 120 
35 121 
35 123 
35 126 
35 128 
35 129 
35 131 
35 133 
35 136 
35 138 
35 139 
35 141 
35 143 
35 146 
35 148 
35 150 
35 152 
35 153 
35 155 
35 158 
35 159 
35 162 
35 163 
35 165 
35 167 
35 169 
35 172 
35 174 
35 175 
36 90 
36 92 
36 93 
36 95 
36 97 
36 100 
36 101 
36 104 
36 106 
36 107 
36 109 
36 111 
36 113 
36 115 
36 117 
36 119 
36 122 
36 124 
36 125 
36 127 
36 130 
36 132 
36 134 
36 135 
36 137 
36 140 
36 142 
36 144 
36 145 
36 147 
36 149 
36 151 
36 154 
36 156 
36 157 
36 160 
36 161 
36 164 
36 166 
36 168 
36 170 
36 171 
36 173 
36 176 
37 38 
37 89 
37 92 
37 93 
37 96 
37 97 
37 100 
37 102 
37 103 
37 106 
37 108 
37 109 
37 112 
37 113 
37 116 
37 118 
37 119 
37 122 
37 124 
37 126 
37 128 
37 129 
37 131 
37 134 
37 136 
37 137 
37 140 
37 142 
37 144 
37 145 
37 148 
37 150 
37 151 
37 153 
37 156 
37 158 
37 159 
37 161 
37 163 
37 166 
37 167 
37 169 
37 171 
37 173 
37 175 
38 90 
38 91 
38 94 
38 95 
38 98 
38 99 
38 101 
38 104 
38 105 
38 107 
38 110 
38 111 
38 114 
38 115 
38 117 
38 120 
38 121 
38 123 
38 125 
38 127 
38 130 
38 132 
38 133 
38 135 
38 138 
38 139 
38 141 
38 143 
38 146 
38 147 
38 149 
38 152 
38 154 
38 155 
38 157 
38 160 
38 162 
38 164 
38 165 
38 168 
38 170 
38 172 
38 174 
38 176 
39 40 
39 89 
39 92 
39 93 
39 96 
39 97 
39 100 
39 102 
39 104 
39 106 
39 107 
39 109 
39 112 
39 113 
39 115 
39 117 
39 120 
39 121 
39 124 
39 126 
39 127 
39 129 
39 131 
39 133 
39 135 
39 138 
39 140 
39 141 
39 143 
39 146 
39 148 
39 149 
39 152 
39 153 
39 156 
39 158 
39 160 
39 162 
39 164 
39 165 
39 167 
39 170 
39 171 
39 174 
39 176 
40 90 
40 91 
40 94 
40 95 
40 98 
40 99 
40 101 
40 103 
40 105 
40 108 
40 110 
40 111 
40 114 
40 116 
40 118 
40 119 
40 122 
40 123 
40 125 
40 128 
40 130 
40 132 
40 134 
40 136 
40 137 
40 139 
40 142 
40 144 
40 145 
40 147 
40 150 
40 151 
40 154 
40 155 
40 157 
40 159 
40 161 
40 163 
40 166 
40 168 
40 169 
40 172 
40 173 
40 175 
41 42 
41 90 
41 91 
41 93 
41 96 
41 98 
41 100 
41 102 
41 104 
41 105 
41 108 
41 109 
41 112 
41 114 
41 115 
41 118 
41 120 
41 122 
41 123 
41 126 
41 127 
41 129 
41 132 
41 134 
41 135 
41 138 
41 140 
41 141 
41 143 
41 145 
41 147 
41 149 
41 151 
41 153 
41 156 
41 157 
41 159 
41 162 
41 163 
41 166 
41 168 
41 170 
41 172 
41 173 
41 175 
42 89 
42 92 
42 94 
42 95 
42 97 
42 99 
42 101 
42 103 
42 106 
42 107 
42 110 
42 111 
42 113 
42 116 
42 117 
42 119 
42 121 
42 124 
42 125 
42 128 
42 130 
42 131 
42 133 
42 136 
42 137 
42 139 
42 142 
42 144 
42 146 
42 148 
42 150 
42 152 
42 154 
42 155 
42 158 
42 160 
42 161 
42 164 
42 165 
42 167 
42 169 
42 171 
42 174 
42 176 
43 44 
43 89 
43 92 
43 93 
43 96 
43 98 
43 100 
43 102 
43 103 
43 105 
43 108 
43 109 
43 111 
43 114 
43 116 
43 117 
43 120 
43 121 
43 124 
43 125 
43 127 
43 130 
43 131 
43 134 
43 135 
43 138 
43 139 
43 142 
43 143 
43 146 
43 148 
43 150 
43 151 
43 154 
43 155 
43 157 
43 159 
43 161 
43 164 
43 166 
43 167 
43 170 
43 172 
43 173 
43 176 
44 90 
44 91 
44 94 
44 95 
44 97 
44 99 
44 101 
44 104 
44 106 
44 107 
44 110 
44 112 
44 113 
44 115 
44 118 
44 119 
44 122 
44 123 
44 126 
44 128 
44 129 
44 132 
44 133 
44 136 
44 137 
44 140 
44 141 
44 144 
44 145 
44 147 
44 149 
44 152 
44 153 
44 156 
44 158 
44 160 
44 162 
44 163 
44 165 
44 168 
44 169 
44 171 
44 174 
44 175 
45 46 
45 90 
45 91 
45 93 
45 95 
45 98 
45 100 
45 102 
45 103 
45 106 
45 107 
45 109 
45 112 
45 114 
45 115 
45 117 
45 119 
45 122 
45 124 
45 126 
45 128 
45 130 
45 131 
45 133 
45 135 
45 138 
45 139 
45 142 
45 144 
45 146 
45 147 
45 150 
45 152 
45 153 
45 155 
45 157 
45 159 
45 162 
45 164 
45 166 
45 168 
45 169 
45 171 
45 174 
45 175 
46 89 
46 92 
46 94 
46 96 
46 97 
46 99 
46 101 
46 104 
46 105 
46 108 
46 110 
46 111 
46 113 
46 116 
46 118 
46 120 
46 121 
46 123 
46 125 
46 127 
46 129 
46 132 
46 134 
46 136 
46 137 
46 140 
46 141 
46 143 
46 145 
46 148 
46 149 
46 151 
46 154 
46 156 
46 158 
46 160 
46 161 
46 163 
46 165 
46 167 
46 170 
46 172 
46 173 
46 176 
47 48 
47 89 
47 92 
47 93 
47 96 
47 98 
47 100 
47 102 
47 104 
47 106 
47 107 
47 110 
47 111 
47 114 
47 115 
47 118 
47 120 
47 121 
47 123 
47 125 
47 128 
47 130 
47 132 
47 133 
47 136 
47 137 
47 140 
47 142 
47 143 
47 146 
47 148 
47 149 
47 152 
47 153 
47 155 
47 157 
47 160 
47 161 
47 163 
47 166 
47 168 
47 169 
47 171 
47 173 
47 175 
48 90 
48 91 
48 94 
48 95 
48 97 
48 99 
48 101 
48 103 
48 105 
48 108 
48 109 
48 112 
48 113 
48 116 
48 117 
48 119 
48 122 
48 124 
48 126 
48 127 
48 129 
48 131 
48 134 
48 135 
48 138 
48 139 
48 141 
48 144 
48 145 
48 147 
48 150 
48 151 
48 154 
48 156 
48 158 
48 159 
48 162 
48 164 
48 165 
48 167 
48 170 
48 172 
48 174 
48 176 
49 50 
49 90 
49 92 
49 94 
49 95 
49 97 
49 100 
49 102 
49 103 
49 106 
49 108 
49 109 
49 112 
49 113 
49 115 
49 117 
49 119 
49 121 
49 123 
49 126 
49 128 
49 129 
49 132 
49 134 
49 136 
49 137 
49 139 
49 142 
49 143 
49 146 
49 148 
49 149 
49 152 
49 154 
49 155 
49 157 
49 159 
49 162 
49 163 
49 165 
49 168 
49 170 
49 172 
49 173 
49 176 
50 89 
50 91 
50 93 
50 96 
50 98 
50 99 
50 101 
50 104 
50 105 
50 107 
50 110 
50 111 
50 114 
50 116 
50 118 
50 120 
50 122 
50 124 
50 125 
50 127 
50 130 
50 131 
50 133 
50 135 
50 138 
50 140 
50 141 
50 144 
50 145 
50 147 
50 150 
50 151 
50 153 
50 156 
50 158 
50 160 
50 161 
50 164 
50 166 
50 167 
50 169 
50 171 
50 174 
50 175 
51 52 
51 89 
51 91 
51 93 
51 95 
51 98 
51 99 
51 101 
51 103 
51 106 
51 108 
51 109 
51 111 
51 114 
51 116 
51 118 
51 119 
51 122 
51 124 
51 126 
51 127 
51 130 
51 132 
51 134 
51 136 
51 138 
51 140 
51 142 
51 143 
51 146 
51 147 
51 149 
51 152 
51 153 
51 155 
51 158 
51 160 
51 162 
51 163 
51 165 
51 167 
51 170 
51 171 
51 173 
51 176 
52 90 
52 92 
52 94 
52 96 
52 97 
52 100 
52 102 
52 104 
52 105 
52 107 
52 110 
52 112 
52 113 
52 115 
52 117 
52 120 
52 121 
52 123 
52 125 
52 128 
52 129 
52 131 
52 133 
52 135 
52 137 
52 139 
52 141 
52 144 
52 145 
52 148 
52 150 
52 151 
52 154 
52 156 
52 157 
52 159 
52 161 
52 164 
52 166 
52 168 
52 169 
52 172 
52 174 
52 175 
53 54 
53 90 
53 92 
53 93 
53 96 
53 97 
53 100 
53 101 
53 103 
53 105 
53 108 
53 110 
53 112 
53 114 
53 116 
53 117 
53 119 
53 122 
53 124 
53 125 
53 127 
53 129 
53 132 
53 133 
53 136 
53 138 
53 139 
53 141 
53 143 
53 145 
53 148 
53 149 
53 152 
53 154 
53 155 
53 158 
53 160 
53 162 
53 164 
53 166 
53 168 
53 169 
53 171 
53 173 
53 175 
54 89 
54 91 
54 94 
54 95 
54 98 
54 99 
54 102 
54 104 
54 106 
54 107 
54 109 
54 111 
54 113 
54 115 
54 118 
54 120 
54 121 
54 123 
54 126 
54 128 
54 130 
54 131 
54 134 
54 135 
54 137 
54 140 
54 142 
54 144 
54 146 
54 147 
54 150 
54 151 
54 153 
54 156 
54 157 
54 159 
54 161 
54 163 
54 165 
54 167 
54 170 
54 172 
54 174 
54 176 
55 56 
55 90 
55 92 
55 93 
55 95 
55 97 
55 99 
55 102 
55 103 
55 105 
55 108 
55 110 
55 111 
55 114 
55 116 
55 118 
55 120 
55 122 
55 124 
55 126 
55 128 
55 129 
55 132 
55 133 
55 135 
55 137 
55 140 
55 141 
55 144 
55 146 
55 148 
55 149 
55 151 
55 153 
55 155 
55 157 
55 159 
55 161 
55 164 
55 165 
55 168 
55 170 
55 171 
55 174 
55 176 
56 89 
56 91 
56 94 
56 96 
56 98 
56 100 
56 101 
56 104 
56 106 
56 107 
56 109 
56 112 
56 113 
56 115 
56 117 
56 119 
56 121 
56 123 
56 125 
56 127 
56 130 
56 131 
56 134 
56 136 
56 138 
56 139 
56 142 
56 143 
56 145 
56 147 
56 150 
56 152 
56 154 
56 156 
56 158 
56 160 
56 162 
56 163 
56 166 
56 167 
56 169 
56 172 
56 173 
56 175 
57 58 
57 89 
57 92 
57 93 
57 95 
57 98 
57 99 
57 102 
57 104 
57 105 
57 108 
57 110 
57 112 
57 113 
57 115 
57 118 
57 119 
57 121 
57 124 
57 125 
57 127 
57 129 
57 131 
57 134 
57 136 
57 137 
57 139 
57 142 
57 144 
57 146 
57 147 
57 149 
57 151 
57 153 
57 155 
57 158 
57 160 
57 162 
57 164 
57 166 
57 168 
57 170 
57 172 
57 174 
57 175 
58 90 
58 91 
58 94 
58 96 
58 97 
58 100 
58 101 
58 103 
58 106 
58 107 
58 109 
58 111 
58 114 
58 116 
58 117 
58 120 
58 122 
58 123 
58 126 
58 128 
58 130 
58 132 
58 133 
58 135 
58 138 
58 140 
58 141 
58 143 
58 145 
58 148 
58 150 
58 152 
58 154 
58 156 
58 157 
58 159 
58 161 
58 163 
58 165 
58 167 
58 169 
58 171 
58 173 
58 176 
59 60 
59 90 
59 91 
59 94 
59 96 
59 97 
59 99 
59 102 
59 104 
59 106 
59 108 
59 109 
59 111 
59 114 
59 116 
59 117 
59 119 
59 121 
59 124 
59 125 
59 127 
59 129 
59 132 
59 133 
59 135 
59 137 
59 140 
59 142 
59 144 
59 145 
59 148 
59 150 
59 152 
59 153 
59 155 
59 157 
59 160 
59 162 
59 163 
59 166 
59 167 
59 170 
59 172 
59 174 
59 175 
60 89 
60 92 
60 93 
60 95 
60 98 
60 100 
60 101 
60 103 
60 105 
60 107 
60 110 
60 112 
60 113 
60 115 
60 118 
60 120 
60 122 
60 123 
60 126 
60 128 
60 130 
60 131 
60 134 
60 136 
60 138 
60 139 
60 141 
60 143 
60 146 
60 147 
60 149 
60 151 
60 154 
60 156 
60 158 
60 159 
60 161 
60 164 
60 165 
60 168 
60 169 
60 171 
60 173 
60 176 
61 62 
61 90 
61 91 
61 94 
61 95 
61 98 
61 100 
61 102 
61 104 
61 105 
61 108 
61 109 
61 111 
61 114 
61 115 
61 117 
61 120 
61 122 
61 124 
61 125 
61 127 
61 129 
61 131 
61 134 
61 136 
61 137 
61 139 
61 141 
61 144 
61 146 
61 148 
61 150 
61 152 
61 153 
61 156 
61 158 
61 160 
61 161 
61 163 
61 165 
61 168 
61 169 
61 171 
61 173 
61 176 
62 89 
62 92 
62 93 
62 96 
62 97 
62 99 
62 101 
62 103 
62 106 
62 107 
62 110 
62 112 
62 113 
62 116 
62 118 
62 119 
62 121 
62 123 
62 126 
62 128 
62 130 
62 132 
62 133 
62 135 
62 138 
62 140 
62 142 
62 143 
62 145 
62 147 
62 149 
62 151 
62 154 
62 155 
62 157 
62 159 
62 162 
62 164 
62 166 
62 167 
62 170 
62 172 
62 174 
62 175 
63 64 
63 90 
63 92 
63 94 
63 95 
63 98 
63 100 
63 101 
63 104 
63 106 
63 108 
63 110 
63 112 
63 114 
63 116 
63 118 
63 119 
63 121 
63 124 
63 126 
63 128 
63 130 
63 131 
63 134 
63 136 
63 138 
63 140 
63 141 
63 143 
63 145 
63 148 
63 150 
63 152 
63 153 
63 156 
63 157 
63 160 
63 161 
63 164 
63 166 
63 168 
63 170 
63 172 
63 174 
63 176 
64 89 
64 91 
64 93 
64 96 
64 97 
64 99 
64 102 
64 103 
64 105 
64 107 
64 109 
64 111 
64 113 
64 115 
64 117 
64 120 
64 122 
64 123 
64 125 
64 127 
64 129 
64 132 
64 133 
64 135 
64 137 
64 139 
64 142 
64 144 
64 146 
64 147 
64 149 
64 151 
64 154 
64 155 
64 158 
64 159 
64 162 
64 163 
64 165 
64 167 
64 169 
64 171 
64 173 
64 175 
65 66 
65 90 
65 91 
65 93 
65 96 
65 97 
65 99 
65 102 
65 104 
65 106 
65 108 
65 110 
65 111 
65 114 
65 116 
65 117 
65 119 
65 121 
65 123 
65 126 
65 128 
65 129 
65 131 
65 134 
65 135 
65 138 
65 139 
65 142 
65 143 
65 146 
65 147 
65 149 
65 151 
65 154 
65 156 
65 158 
65 160 
65 161 
65 163 
65 166 
65 168 
65 169 
65 171 
65 174 
65 176 
66 89 
66 92 
66 94 
66 95 
66 98 
66 100 
66 101 
66 103 
66 105 
66 107 
66 109 
66 112 
66 113 
66 115 
66 118 
66 120 
66 122 
66 124 
66 125 
66 127 
66 130 
66 132 
66 133 
66 136 
66 137 
66 140 
66 141 
66 144 
66 145 
66 148 
66 150 
66 152 
66 153 
66 155 
66 157 
66 159 
66 162 
66 164 
66 165 
66 167 
66 170 
66 172 
66 173 
66 175 
67 68 
67 90 
67 92 
67 93 
67 95 
67 97 
67 99 
67 102 
67 103 
67 105 
67 107 
67 110 
67 112 
67 114 
67 116 
67 117 
67 120 
67 121 
67 123 
67 126 
67 127 
67 130 
67 131 
67 134 
67 136 
67 137 
67 140 
67 141 
67 144 
67 146 
67 147 
67 150 
67 152 
67 154 
67 156 
67 157 
67 160 
67 162 
67 163 
67 166 
67 167 
67 170 
67 171 
67 173 
67 175 
68 89 
68 91 
68 94 
68 96 
68 98 
68 100 
68 101 
68 104 
68 106 
68 108 
68 109 
68 111 
68 113 
68 115 
68 118 
68 119 
68 122 
68 124 
68 125 
68 128 
68 129 
68 132 
68 133 
68 135 
68 138 
68 139 
68 142 
68 143 
68 145 
68 148 
68 149 
68 151 
68 153 
68 155 
68 158 
68 159 
68 161 
68 164 
68 165 
68 168 
68 169 
68 172 
68 174 
68 176 
69 70 
69 90 
69 92 
69 93 
69 96 
69 98 
69 99 
69 102 
69 104 
69 106 
69 108 
69 109 
69 112 
69 113 
69 116 
69 117 
69 120 
69 122 
69 123 
69 125 
69 128 
69 130 
69 132 
69 134 
69 136 
69 137 
69 139 
69 141 
69 143 
69 145 
69 147 
69 150 
69 151 
69 153 
69 155 
69 157 
69 160 
69 162 
69 164 
69 165 
69 167 
69 169 
69 171 
69 174 
69 176 
70 89 
70 91 
70 94 
70 95 
70 97 
70 100 
70 101 
70 103 
70 105 
70 107 
70 110 
70 111 
70 114 
70 115 
70 118 
70 119 
70 121 
70 124 
70 126 
70 127 
70 129 
70 131 
70 133 
70 135 
70 138 
70 140 
70 142 
70 144 
70 146 
70 148 
70 149 
70 152 
70 154 
70 156 
70 158 
70 159 
70 161 
70 163 
70 166 
70 168 
70 170 
70 172 
70 173 
70 175 
71 72 
71 90 
71 91 
71 93 
71 95 
71 98 
71 99 
71 102 
71 103 
71 106 
71 108 
71 110 
71 112 
71 113 
71 115 
71 117 
71 120 
71 121 
71 124 
71 125 
71 127 
71 130 
71 132 
71 133 
71 136 
71 138 
71 140 
71 142 
71 143 
71 145 
71 148 
71 150 
71 151 
71 154 
71 156 
71 158 
71 159 
71 161 
71 163 
71 165 
71 168 
71 170 
71 171 
71 174 
71 175 
72 89 
72 92 
72 94 
72 96 
72 97 
72 100 
72 101 
72 104 
72 105 
72 107 
72 109 
72 111 
72 114 
72 116 
72 118 
72 119 
72 122 
72 123 
72 126 
72 128 
72 129 
72 131 
72 134 
72 135 
72 137 
72 139 
72 141 
72 144 
72 146 
72 147 
72 149 
72 152 
72 153 
72 155 
72 157 
72 160 
72 162 
72 164 
72 166 
72 167 
72 169 
72 172 
72 173 
72 176 
73 74 
73 90 
73 91 
73 93 
73 96 
73 97 
73 99 
73 102 
73 104 
73 105 
73 107 
73 110 
73 112 
73 114 
73 115 
73 117 
73 119 
73 122 
73 123 
73 125 
73 128 
73 130 
73 131 
73 134 
73 136 
73 138 
73 140 
73 142 
73 144 
73 145 
73 148 
73 149 
73 152 
73 153 
73 155 
73 158 
73 159 
73 161 
73 164 
73 165 
73 167 
73 170 
73 172 
73 173 
73 176 
74 89 
74 92 
74 94 
74 95 
74 98 
74 100 
74 101 
74 103 
74 106 
74 108 
74 109 
74 111 
74 113 
74 116 
74 118 
74 120 
74 121 
74 124 
74 126 
74 127 
74 129 
74 132 
74 133 
74 135 
74 137 
74 139 
74 141 
74 143 
74 146 
74 147 
74 150 
74 151 
74 154 
74 156 
74 157 
74 160 
74 162 
74 163 
74 166 
74 168 
74 169 
74 171 
74 174 
74 175 
75 76 
75 90 
75 92 
75 94 
75 96 
75 98 
75 99 
75 102 
75 103 
75 105 
75 107 
75 109 
75 112 
75 113 
75 116 
75 118 
75 120 
75 122 
75 124 
75 125 
75 128 
75 130 
75 132 
75 134 
75 135 
75 138 
75 140 
75 142 
75 144 
75 146 
75 148 
75 149 
75 152 
75 154 
75 156 
75 158 
75 160 
75 162 
75 163 
75 166 
75 168 
75 169 
75 172 
75 174 
75 176 
76 89 
76 91 
76 93 
76 95 
76 97 
76 100 
76 101 
76 104 
76 106 
76 108 
76 110 
76 111 
76 114 
76 115 
76 117 
76 119 
76 121 
76 123 
76 126 
76 127 
76 129 
76 131 
76 133 
76 136 
76 137 
76 139 
76 141 
76 143 
76 145 
76 147 
76 150 
76 151 
76 153 
76 155 
76 157 
76 159 
76 161 
76 164 
76 165 
76 167 
76 170 
76 171 
76 173 
76 175 
77 78 
77 89 
77 91 
77 94 
77 95 
77 98 
77 100 
77 102 
77 104 
77 105 
77 108 
77 110 
77 112 
77 113 
77 116 
77 117 
77 120 
77 121 
77 124 
77 126 
77 128 
77 129 
77 132 
77 134 
77 135 
77 138 
77 140 
77 142 
77 144 
77 145 
77 147 
77 149 
77 152 
77 154 
77 155 
77 157 
77 160 
77 161 
77 164 
77 165 
77 167 
77 169 
77 171 
77 173 
77 175 
78 90 
78 92 
78 93 
78 96 
78 97 
78 99 
78 101 
78 103 
78 106 
78 107 
78 109 
78 111 
78 114 
78 115 
78 118 
78 119 
78 122 
78 123 
78 125 
78 127 
78 130 
78 131 
78 133 
78 136 
78 137 
78 139 
78 141 
78 143 
78 146 
78 148 
78 150 
78 151 
78 153 
78 156 
78 158 
78 159 
78 162 
78 163 
78 166 
78 168 
78 170 
78 172 
78 174 
78 176 
79 80 
79 89 
79 91 
79 93 
79 95 
79 97 
79 100 
79 102 
79 104 
79 106 
79 108 
79 110 
79 112 
79 113 
79 116 
79 118 
79 119 
79 122 
79 123 
79 125 
79 127 
79 130 
79 131 
79 133 
79 135 
79 138 
79 140 
79 141 
79 144 
79 146 
79 148 
79 150 
79 151 
79 154 
79 155 
79 157 
79 160 
79 162 
79 163 
79 165 
79 168 
79 169 
79 172 
79 173 
79 176 
80 90 
80 92 
80 94 
80 96 
80 98 
80 99 
80 101 
80 103 
80 105 
80 107 
80 109 
80 111 
80 114 
80 115 
80 117 
80 120 
80 121 
80 124 
80 126 
80 128 
80 129 
80 132 
80 134 
80 136 
80 137 
80 139 
80 142 
80 143 
80 145 
80 147 
80 149 
80 152 
80 153 
80 156 
80 158 
80 159 
80 161 
80 164 
80 166 
80 167 
80 170 
80 171 
80 174 
80 175 
81 82 
81 89 
81 91 
81 93 
81 96 
81 97 
81 100 
81 101 
81 104 
81 105 
81 108 
81 109 
81 112 
81 114 
81 116 
81 118 
81 120 
81 121 
81 124 
81 125 
81 128 
81 130 
81 131 
81 133 
81 136 
81 137 
81 139 
81 142 
81 144 
81 145 
81 147 
81 149 
81 152 
81 154 
81 156 
81 157 
81 159 
81 162 
81 163 
81 165 
81 168 
81 170 
81 171 
81 174 
81 176 
82 90 
82 92 
82 94 
82 95 
82 98 
82 99 
82 102 
82 103 
82 106 
82 107 
82 110 
82 111 
82 113 
82 115 
82 117 
82 119 
82 122 
82 123 
82 126 
82 127 
82 129 
82 132 
82 134 
82 135 
82 138 
82 140 
82 141 
82 143 
82 146 
82 148 
82 150 
82 151 
82 153 
82 155 
82 158 
82 160 
82 161 
82 164 
82 166 
82 167 
82 169 
82 172 
82 173 
82 175 
83 84 
83 89 
83 92 
83 94 
83 96 
83 98 
83 99 
83 102 
83 104 
83 105 
83 108 
83 110 
83 111 
83 113 
83 115 
83 117 
83 119 
83 122 
83 124 
83 126 
83 128 
83 130 
83 131 
83 133 
83 135 
83 137 
83 140 
83 141 
83 143 
83 145 
83 147 
83 150 
83 152 
83 154 
83 155 
83 158 
83 159 
83 162 
83 163 
83 166 
83 168 
83 170 
83 171 
83 173 
83 176 
84 90 
84 91 
84 93 
84 95 
84 97 
84 100 
84 101 
84 103 
84 106 
84 107 
84 109 
84 112 
84 114 
84 116 
84 118 
84 120 
84 121 
84 123 
84 125 
84 127 
84 129 
84 132 
84 134 
84 136 
84 138 
84 139 
84 142 
84 144 
84 146 
84 148 
84 149 
84 151 
84 153 
84 156 
84 157 
84 160 
84 161 
84 164 
84 165 
84 167 
84 169 
84 172 
84 174 
84 175 
85 86 
85 90 
85 91 
85 94 
85 96 
85 98 
85 100 
85 102 
85 103 
85 106 
85 108 
85 110 
85 112 
85 113 
85 116 
85 118 
85 119 
85 121 
85 123 
85 125 
85 127 
85 130 
85 132 
85 133 
85 135 
85 137 
85 139 
85 141 
85 144 
85 146 
85 147 
85 149 
85 152 
85 153 
85 156 
85 158 
85 159 
85 161 
85 164 
85 166 
85 167 
85 170 
85 171 
85 173 
85 176 
86 89 
86 92 
86 93 
86 95 
86 97 
86 99 
86 101 
86 104 
86 105 
86 107 
86 109 
86 111 
86 114 
86 115 
86 117 
86 120 
86 122 
86 124 
86 126 
86 128 
86 129 
86 131 
86 134 
86 136 
86 138 
86 140 
86 142 
86 143 
86 145 
86 148 
86 150 
86 151 
86 154 
86 155 
86 157 
86 160 
86 162 
86 163 
86 165 
86 168 
86 169 
86 172 
86 174 
86 175 
87 88 
87 89 
87 92 
87 94 
87 95 
87 97 
87 99 
87 102 
87 104 
87 105 
87 108 
87 109 
87 112 
87 114 
87 115 
87 118 
87 119 
87 122 
87 123 
87 125 
87 127 
87 129 
87 132 
87 133 
87 136 
87 138 
87 140 
87 142 
87 143 
87 146 
87 147 
87 150 
87 152 
87 154 
87 156 
87 157 
87 159 
87 161 
87 164 
87 166 
87 167 
87 169 
87 171 
87 174 
87 176 
88 90 
88 91 
88 93 
88 96 
88 98 
88 100 
88 101 
88 103 
88 106 
88 107 
88 110 
88 111 
88 113 
88 116 
88 117 
88 120 
88 121 
88 124 
88 126 
88 128 
88 130 
88 131 
88 134 
88 135 
88 137 
88 139 
88 141 
88 144 
88 145 
88 148 
88 149 
88 151 
88 153 
88 155 
88 158 
88 160 
88 162 
88 163 
88 165 
88 168 
88 170 
88 172 
88 173 
88 175 
89 90 
91 92 
93 94 
95 96 
97 98 
99 100 
101 102 
103 104 
105 106 
107 108 
109 110 
111 112 
113 114 
115 116 
117 118 
119 120 
121 122 
123 124 
125 126 
127 128 
129 130 
131 132 
133 134 
135 136 
137 138 
139 140 
141 142 
143 144 
145 146 
147 148 
149 150 
151 152 
153 154 
155 156 
157 158 
159 160 
161 162 
163 164 
165 166 
167 168 
169 170 
171 172 
173 174 
175 176 
